(set-logic QF_LIA)
(declare-fun x0 () Int)
(declare-fun x1 () Int)
(declare-fun x2 () Int)
(declare-fun x3 () Int)
(declare-fun x4 () Int)
(declare-fun x5 () Int)
(declare-fun x6 () Int)
(declare-fun x7 () Int)
(declare-fun x8 () Int)
(declare-fun x9 () Int)
(declare-fun A0 () Bool)
(declare-fun A1 () Bool)
(declare-fun A2 () Bool)
(declare-fun A3 () Bool)
(declare-fun A4 () Bool)
(declare-fun A5 () Bool)
(declare-fun A6 () Bool)
(declare-fun A7 () Bool)
(declare-fun A8 () Bool)
(declare-fun A9 () Bool)
(assert (let ((.def_0 (* (- 1) x2))) (let ((.def_1 (< .def_0 1))) (let ((.def_2 (not A6))) (let ((.def_3 (and .def_2 .def_1))) (let ((.def_4 (* (- 1) x9))) (let ((.def_5 (< .def_4 1))) (let ((.def_6 (* (- 1) x7))) (let ((.def_7 (< .def_6 (- 1)))) (let ((.def_8 (not .def_7))) (let ((.def_9 (and .def_8 .def_5))) (let ((.def_10 (not .def_9))) (let ((.def_11 (or .def_10 .def_3))) (let ((.def_12 (not A7))) (let ((.def_13 (= .def_12 A2))) (let ((.def_14 (* (- 1) x8))) (let ((.def_15 (+ .def_14 .def_6))) (let ((.def_16 (< .def_15 (- 1)))) (let ((.def_17 (not .def_16))) (let ((.def_18 (* (- 1) x4))) (let ((.def_19 (< .def_18 1))) (let ((.def_20 (or .def_19 .def_17))) (let ((.def_21 (not .def_20))) (let ((.def_22 (and .def_21 .def_13))) (let ((.def_23 (or .def_22 .def_11))) (let ((.def_24 (* 1 x5))) (let ((.def_25 (+ .def_6 .def_24))) (let ((.def_26 (< .def_25 (- 1)))) (let ((.def_27 (not A1))) (let ((.def_28 (and .def_27 .def_26))) (let ((.def_29 (not .def_28))) (let ((.def_30 (* 1 x6))) (let ((.def_31 (+ .def_30 .def_24))) (let ((.def_32 (< .def_31 (- 1)))) (let ((.def_33 (not A2))) (let ((.def_34 (and .def_33 .def_32))) (let ((.def_35 (or .def_34 .def_29))) (let ((.def_36 (* 1 x1))) (let ((.def_37 (* (- 1) x0))) (let ((.def_38 (+ .def_37 .def_36))) (let ((.def_39 (< .def_38 1))) (let ((.def_40 (< .def_6 1))) (let ((.def_41 (and .def_40 .def_39))) (let ((.def_42 (not A5))) (let ((.def_43 (and A8 .def_42))) (let ((.def_44 (or .def_43 .def_41))) (let ((.def_45 (= .def_44 .def_35))) (let ((.def_46 (not .def_45))) (let ((.def_47 (and .def_46 .def_23))) (let ((.def_48 (not .def_47))) (let ((.def_49 (or .def_39 .def_42))) (let ((.def_50 (not .def_49))) (let ((.def_51 (or .def_42 .def_33))) (let ((.def_52 (or .def_51 .def_50))) (let ((.def_53 (* (- 1) x6))) (let ((.def_54 (< .def_53 1))) (let ((.def_55 (not .def_54))) (let ((.def_56 (* (- 1) x1))) (let ((.def_57 (+ .def_56 .def_53))) (let ((.def_58 (< .def_57 (- 1)))) (let ((.def_59 (and .def_58 .def_55))) (let ((.def_60 (not .def_59))) (let ((.def_61 (+ .def_37 .def_30))) (let ((.def_62 (< .def_61 (- 1)))) (let ((.def_63 (not .def_62))) (let ((.def_64 (or .def_63 A1))) (let ((.def_65 (and .def_64 .def_60))) (let ((.def_66 (or .def_65 .def_52))) (let ((.def_67 (not .def_66))) (let ((.def_68 (* 1 x9))) (let ((.def_69 (+ .def_68 .def_30))) (let ((.def_70 (< .def_69 (- 1)))) (let ((.def_71 (and .def_70 A5))) (let ((.def_72 (* 1 x2))) (let ((.def_73 (+ .def_72 .def_18))) (let ((.def_74 (< .def_73 (- 1)))) (let ((.def_75 (not .def_74))) (let ((.def_76 (* (- 1) x3))) (let ((.def_77 (+ .def_56 .def_76))) (let ((.def_78 (< .def_77 (- 1)))) (let ((.def_79 (or .def_78 .def_75))) (let ((.def_80 (and .def_79 .def_71))) (let ((.def_81 (< .def_36 1))) (let ((.def_82 (not .def_81))) (let ((.def_83 (< .def_68 (- 1)))) (let ((.def_84 (not .def_83))) (let ((.def_85 (or .def_84 .def_82))) (let ((.def_86 (* 1 x0))) (let ((.def_87 (< .def_86 (- 1)))) (let ((.def_88 (< .def_53 (- 1)))) (let ((.def_89 (not .def_88))) (let ((.def_90 (or .def_89 .def_87))) (let ((.def_91 (and .def_90 .def_85))) (let ((.def_92 (not .def_91))) (let ((.def_93 (or .def_92 .def_80))) (let ((.def_94 (and .def_93 .def_67))) (let ((.def_95 (and .def_94 .def_48))) (let ((.def_96 (not .def_95))) (let ((.def_97 (not A8))) (let ((.def_98 (and .def_55 .def_97))) (let ((.def_99 (not .def_98))) (let ((.def_100 (+ .def_30 .def_56))) (let ((.def_101 (< .def_100 1))) (let ((.def_102 (not .def_101))) (let ((.def_103 (or A1 .def_102))) (let ((.def_104 (and .def_103 .def_99))) (let ((.def_105 (not .def_104))) (let ((.def_106 (= A8 A8))) (let ((.def_107 (not A4))) (let ((.def_108 (= A0 .def_107))) (let ((.def_109 (not .def_108))) (let ((.def_110 (and .def_109 .def_106))) (let ((.def_111 (not .def_110))) (let ((.def_112 (or .def_111 .def_105))) (let ((.def_113 (not .def_112))) (let ((.def_114 (or .def_42 A6))) (let ((.def_115 (not .def_5))) (let ((.def_116 (or .def_82 .def_115))) (let ((.def_117 (not .def_116))) (let ((.def_118 (or .def_117 .def_114))) (let ((.def_119 (* 1 x3))) (let ((.def_120 (< .def_119 1))) (let ((.def_121 (= .def_12 .def_120))) (let ((.def_122 (not .def_121))) (let ((.def_123 (not A0))) (let ((.def_124 (= .def_42 .def_123))) (let ((.def_125 (and .def_124 .def_122))) (let ((.def_126 (and .def_125 .def_118))) (let ((.def_127 (not .def_126))) (let ((.def_128 (or .def_127 .def_113))) (let ((.def_129 (not .def_128))) (let ((.def_130 (and .def_42 A2))) (let ((.def_131 (not .def_130))) (let ((.def_132 (< .def_72 (- 1)))) (let ((.def_133 (+ .def_56 .def_24))) (let ((.def_134 (< .def_133 (- 1)))) (let ((.def_135 (and .def_134 .def_132))) (let ((.def_136 (or .def_135 .def_131))) (let ((.def_137 (< .def_4 (- 1)))) (let ((.def_138 (and .def_137 .def_115))) (let ((.def_139 (+ .def_30 .def_4))) (let ((.def_140 (< .def_139 (- 1)))) (let ((.def_141 (* 1 x7))) (let ((.def_142 (< .def_141 1))) (let ((.def_143 (not .def_142))) (let ((.def_144 (and .def_143 .def_140))) (let ((.def_145 (not .def_144))) (let ((.def_146 (or .def_145 .def_138))) (let ((.def_147 (or .def_146 .def_136))) (let ((.def_148 (not .def_147))) (let ((.def_149 (not A3))) (let ((.def_150 (or .def_149 .def_149))) (let ((.def_151 (not .def_150))) (let ((.def_152 (or A2 A2))) (let ((.def_153 (not .def_152))) (let ((.def_154 (or .def_153 .def_151))) (let ((.def_155 (not .def_154))) (let ((.def_156 (and .def_7 A3))) (let ((.def_157 (not .def_156))) (let ((.def_158 (and A0 A3))) (let ((.def_159 (not .def_158))) (let ((.def_160 (or .def_159 .def_157))) (let ((.def_161 (and .def_160 .def_155))) (let ((.def_162 (and .def_161 .def_148))) (let ((.def_163 (or .def_162 .def_129))) (let ((.def_164 (not .def_163))) (let ((.def_165 (or .def_164 .def_96))) (let ((.def_166 (and A8 A5))) (let ((.def_167 (< .def_24 (- 1)))) (let ((.def_168 (not .def_167))) (let ((.def_169 (* 1 x4))) (let ((.def_170 (< .def_169 (- 1)))) (let ((.def_171 (or .def_170 .def_168))) (let ((.def_172 (= .def_171 .def_166))) (let ((.def_173 (not .def_172))) (let ((.def_174 (+ .def_6 .def_119))) (let ((.def_175 (< .def_174 (- 1)))) (let ((.def_176 (+ .def_30 .def_119))) (let ((.def_177 (< .def_176 1))) (let ((.def_178 (not .def_177))) (let ((.def_179 (and .def_178 .def_175))) (let ((.def_180 (or .def_33 A7))) (let ((.def_181 (not .def_180))) (let ((.def_182 (and .def_181 .def_179))) (let ((.def_183 (or .def_182 .def_173))) (let ((.def_184 (+ .def_169 .def_76))) (let ((.def_185 (< .def_184 (- 1)))) (let ((.def_186 (not .def_185))) (let ((.def_187 (* (- 1) x5))) (let ((.def_188 (+ .def_187 .def_141))) (let ((.def_189 (< .def_188 1))) (let ((.def_190 (not .def_189))) (let ((.def_191 (and .def_190 .def_186))) (let ((.def_192 (or A6 A5))) (let ((.def_193 (and .def_192 .def_191))) (let ((.def_194 (or .def_89 A5))) (let ((.def_195 (not .def_194))) (let ((.def_196 (not .def_170))) (let ((.def_197 (and A3 .def_196))) (let ((.def_198 (not .def_197))) (let ((.def_199 (or .def_198 .def_195))) (let ((.def_200 (or .def_199 .def_193))) (let ((.def_201 (not .def_200))) (let ((.def_202 (and .def_201 .def_183))) (let ((.def_203 (and A7 A3))) (let ((.def_204 (not .def_203))) (let ((.def_205 (< .def_169 1))) (let ((.def_206 (= A6 .def_205))) (let ((.def_207 (not .def_206))) (let ((.def_208 (or .def_207 .def_204))) (let ((.def_209 (not .def_208))) (let ((.def_210 (= .def_168 .def_27))) (let ((.def_211 (not .def_210))) (let ((.def_212 (not A9))) (let ((.def_213 (< .def_0 (- 1)))) (let ((.def_214 (not .def_213))) (let ((.def_215 (or .def_214 .def_212))) (let ((.def_216 (not .def_215))) (let ((.def_217 (and .def_216 .def_211))) (let ((.def_218 (not .def_217))) (let ((.def_219 (or .def_218 .def_209))) (let ((.def_220 (not .def_219))) (let ((.def_221 (and .def_167 .def_123))) (let ((.def_222 (not .def_221))) (let ((.def_223 (or A0 A9))) (let ((.def_224 (not .def_223))) (let ((.def_225 (or .def_224 .def_222))) (let ((.def_226 (or .def_12 A0))) (let ((.def_227 (not .def_226))) (let ((.def_228 (< .def_37 1))) (let ((.def_229 (or A0 .def_228))) (let ((.def_230 (not .def_229))) (let ((.def_231 (= .def_230 .def_227))) (let ((.def_232 (or .def_231 .def_225))) (let ((.def_233 (not .def_232))) (let ((.def_234 (or .def_233 .def_220))) (let ((.def_235 (not .def_234))) (let ((.def_236 (and .def_235 .def_202))) (let ((.def_237 (not .def_236))) (let ((.def_238 (+ .def_187 .def_37))) (let ((.def_239 (< .def_238 (- 1)))) (let ((.def_240 (or .def_27 .def_239))) (let ((.def_241 (not .def_137))) (let ((.def_242 (or A5 .def_241))) (let ((.def_243 (or .def_242 .def_240))) (let ((.def_244 (not .def_243))) (let ((.def_245 (< .def_119 (- 1)))) (let ((.def_246 (not .def_245))) (let ((.def_247 (and .def_246 .def_228))) (let ((.def_248 (not .def_247))) (let ((.def_249 (+ .def_36 .def_76))) (let ((.def_250 (< .def_249 1))) (let ((.def_251 (< .def_187 1))) (let ((.def_252 (or .def_251 .def_250))) (let ((.def_253 (or .def_252 .def_248))) (let ((.def_254 (or .def_253 .def_244))) (let ((.def_255 (and A8 .def_97))) (let ((.def_256 (not .def_255))) (let ((.def_257 (or A5 A0))) (let ((.def_258 (not .def_257))) (let ((.def_259 (and .def_258 .def_256))) (let ((.def_260 (not .def_259))) (let ((.def_261 (< .def_141 (- 1)))) (let ((.def_262 (+ .def_56 .def_18))) (let ((.def_263 (< .def_262 1))) (let ((.def_264 (or .def_263 .def_261))) (let ((.def_265 (< .def_72 1))) (let ((.def_266 (and .def_33 .def_265))) (let ((.def_267 (and .def_266 .def_264))) (let ((.def_268 (or .def_267 .def_260))) (let ((.def_269 (not .def_268))) (let ((.def_270 (or .def_269 .def_254))) (let ((.def_271 (or .def_246 .def_27))) (let ((.def_272 (+ .def_76 .def_36))) (let ((.def_273 (< .def_272 (- 1)))) (let ((.def_274 (= .def_273 .def_89))) (let ((.def_275 (not .def_274))) (let ((.def_276 (and .def_275 .def_271))) (let ((.def_277 (not .def_276))) (let ((.def_278 (+ .def_36 .def_24))) (let ((.def_279 (< .def_278 (- 1)))) (let ((.def_280 (not .def_279))) (let ((.def_281 (and .def_280 .def_168))) (let ((.def_282 (+ .def_56 .def_119))) (let ((.def_283 (< .def_282 (- 1)))) (let ((.def_284 (and .def_137 .def_283))) (let ((.def_285 (or .def_284 .def_281))) (let ((.def_286 (not .def_285))) (let ((.def_287 (and .def_286 .def_277))) (let ((.def_288 (* 1 x8))) (let ((.def_289 (< .def_288 1))) (let ((.def_290 (not .def_289))) (let ((.def_291 (or A1 .def_290))) (let ((.def_292 (or A3 .def_107))) (let ((.def_293 (and .def_292 .def_291))) (let ((.def_294 (+ .def_24 .def_141))) (let ((.def_295 (< .def_294 (- 1)))) (let ((.def_296 (or .def_261 .def_295))) (let ((.def_297 (+ .def_72 .def_141))) (let ((.def_298 (< .def_297 1))) (let ((.def_299 (not .def_298))) (let ((.def_300 (or .def_107 .def_299))) (let ((.def_301 (not .def_300))) (let ((.def_302 (= .def_301 .def_296))) (let ((.def_303 (not .def_302))) (let ((.def_304 (= .def_303 .def_293))) (let ((.def_305 (or .def_304 .def_287))) (let ((.def_306 (and .def_305 .def_270))) (let ((.def_307 (or .def_306 .def_237))) (let ((.def_308 (and .def_307 .def_165))) (let ((.def_309 (< .def_187 (- 1)))) (let ((.def_310 (and A4 .def_309))) (let ((.def_311 (or .def_42 .def_55))) (let ((.def_312 (and .def_311 .def_310))) (let ((.def_313 (+ .def_6 .def_14))) (let ((.def_314 (< .def_313 1))) (let ((.def_315 (and .def_314 .def_214))) (let ((.def_316 (+ .def_72 .def_119))) (let ((.def_317 (< .def_316 1))) (let ((.def_318 (< .def_30 1))) (let ((.def_319 (not .def_318))) (let ((.def_320 (or .def_319 .def_317))) (let ((.def_321 (or .def_320 .def_315))) (let ((.def_322 (and .def_321 .def_312))) (let ((.def_323 (not .def_322))) (let ((.def_324 (+ .def_76 .def_37))) (let ((.def_325 (< .def_324 1))) (let ((.def_326 (and .def_246 .def_325))) (let ((.def_327 (+ .def_288 .def_68))) (let ((.def_328 (< .def_327 (- 1)))) (let ((.def_329 (not .def_328))) (let ((.def_330 (or .def_329 .def_196))) (let ((.def_331 (and .def_330 .def_326))) (let ((.def_332 (not .def_331))) (let ((.def_333 (< .def_14 1))) (let ((.def_334 (or .def_333 .def_123))) (let ((.def_335 (or A5 A6))) (let ((.def_336 (not .def_335))) (let ((.def_337 (and .def_336 .def_334))) (let ((.def_338 (= .def_337 .def_332))) (let ((.def_339 (not .def_338))) (let ((.def_340 (and .def_339 .def_323))) (let ((.def_341 (or .def_33 .def_132))) (let ((.def_342 (or .def_42 A8))) (let ((.def_343 (not .def_342))) (let ((.def_344 (or .def_343 .def_341))) (let ((.def_345 (not .def_344))) (let ((.def_346 (+ .def_37 .def_6))) (let ((.def_347 (< .def_346 1))) (let ((.def_348 (not .def_347))) (let ((.def_349 (or .def_33 .def_348))) (let ((.def_350 (not .def_349))) (let ((.def_351 (+ .def_141 .def_119))) (let ((.def_352 (< .def_351 (- 1)))) (let ((.def_353 (and .def_27 .def_352))) (let ((.def_354 (not .def_353))) (let ((.def_355 (or .def_354 .def_350))) (let ((.def_356 (and .def_355 .def_345))) (let ((.def_357 (not .def_356))) (let ((.def_358 (not .def_228))) (let ((.def_359 (and .def_358 .def_97))) (let ((.def_360 (+ .def_86 .def_68))) (let ((.def_361 (< .def_360 (- 1)))) (let ((.def_362 (not .def_361))) (let ((.def_363 (and .def_19 .def_362))) (let ((.def_364 (and .def_363 .def_359))) (let ((.def_365 (not .def_364))) (let ((.def_366 (+ .def_141 .def_0))) (let ((.def_367 (< .def_366 (- 1)))) (let ((.def_368 (+ .def_36 .def_6))) (let ((.def_369 (< .def_368 (- 1)))) (let ((.def_370 (and .def_369 .def_367))) (let ((.def_371 (not .def_370))) (let ((.def_372 (< .def_288 (- 1)))) (let ((.def_373 (= .def_372 A0))) (let ((.def_374 (not .def_373))) (let ((.def_375 (or .def_374 .def_371))) (let ((.def_376 (and .def_375 .def_365))) (let ((.def_377 (and .def_376 .def_357))) (let ((.def_378 (not .def_377))) (let ((.def_379 (or .def_378 .def_340))) (let ((.def_380 (+ .def_72 .def_24))) (let ((.def_381 (< .def_380 (- 1)))) (let ((.def_382 (or A4 .def_381))) (let ((.def_383 (or .def_170 A3))) (let ((.def_384 (and .def_383 .def_382))) (let ((.def_385 (< .def_76 1))) (let ((.def_386 (or A2 .def_385))) (let ((.def_387 (or .def_333 A2))) (let ((.def_388 (not .def_387))) (let ((.def_389 (or .def_388 .def_386))) (let ((.def_390 (and .def_389 .def_384))) (let ((.def_391 (not .def_390))) (let ((.def_392 (and .def_42 A5))) (let ((.def_393 (not .def_392))) (let ((.def_394 (+ .def_56 .def_0))) (let ((.def_395 (< .def_394 1))) (let ((.def_396 (not .def_395))) (let ((.def_397 (or A5 .def_396))) (let ((.def_398 (or .def_397 .def_393))) (let ((.def_399 (+ .def_288 .def_86))) (let ((.def_400 (< .def_399 1))) (let ((.def_401 (not .def_400))) (let ((.def_402 (= A7 .def_401))) (let ((.def_403 (not .def_402))) (let ((.def_404 (+ .def_14 .def_30))) (let ((.def_405 (< .def_404 1))) (let ((.def_406 (not .def_405))) (let ((.def_407 (or .def_406 A6))) (let ((.def_408 (not .def_407))) (let ((.def_409 (= .def_408 .def_403))) (let ((.def_410 (and .def_409 .def_398))) (let ((.def_411 (not .def_410))) (let ((.def_412 (or .def_411 .def_391))) (let ((.def_413 (+ .def_169 .def_14))) (let ((.def_414 (< .def_413 (- 1)))) (let ((.def_415 (not .def_265))) (let ((.def_416 (or .def_415 .def_414))) (let ((.def_417 (not .def_416))) (let ((.def_418 (and .def_42 .def_123))) (let ((.def_419 (not .def_418))) (let ((.def_420 (and .def_419 .def_417))) (let ((.def_421 (+ .def_18 .def_53))) (let ((.def_422 (< .def_421 (- 1)))) (let ((.def_423 (not .def_422))) (let ((.def_424 (and .def_423 .def_97))) (let ((.def_425 (not .def_424))) (let ((.def_426 (and .def_168 .def_213))) (let ((.def_427 (and .def_426 .def_425))) (let ((.def_428 (not .def_427))) (let ((.def_429 (and .def_428 .def_420))) (let ((.def_430 (+ .def_6 .def_36))) (let ((.def_431 (< .def_430 1))) (let ((.def_432 (not .def_431))) (let ((.def_433 (= A5 .def_432))) (let ((.def_434 (not .def_433))) (let ((.def_435 (or .def_132 .def_107))) (let ((.def_436 (not .def_435))) (let ((.def_437 (= .def_436 .def_434))) (let ((.def_438 (not .def_437))) (let ((.def_439 (and A9 A6))) (let ((.def_440 (< .def_421 1))) (let ((.def_441 (or .def_440 .def_87))) (let ((.def_442 (not .def_441))) (let ((.def_443 (or .def_442 .def_439))) (let ((.def_444 (and .def_443 .def_438))) (let ((.def_445 (or .def_444 .def_429))) (let ((.def_446 (or .def_445 .def_412))) (let ((.def_447 (not .def_446))) (let ((.def_448 (and .def_447 .def_379))) (let ((.def_449 (not .def_448))) (let ((.def_450 (or A6 .def_107))) (let ((.def_451 (not .def_450))) (let ((.def_452 (+ .def_6 .def_72))) (let ((.def_453 (< .def_452 1))) (let ((.def_454 (< .def_36 (- 1)))) (let ((.def_455 (not .def_454))) (let ((.def_456 (or .def_455 .def_453))) (let ((.def_457 (or .def_456 .def_451))) (let ((.def_458 (< .def_86 1))) (let ((.def_459 (+ .def_6 .def_0))) (let ((.def_460 (< .def_459 1))) (let ((.def_461 (not .def_460))) (let ((.def_462 (= .def_461 .def_458))) (let ((.def_463 (not .def_462))) (let ((.def_464 (or .def_5 .def_97))) (let ((.def_465 (and .def_464 .def_463))) (let ((.def_466 (not .def_465))) (let ((.def_467 (= .def_466 .def_457))) (let ((.def_468 (+ .def_53 .def_86))) (let ((.def_469 (< .def_468 1))) (let ((.def_470 (+ .def_0 .def_53))) (let ((.def_471 (< .def_470 1))) (let ((.def_472 (or .def_471 .def_469))) (let ((.def_473 (not .def_472))) (let ((.def_474 (and .def_212 .def_83))) (let ((.def_475 (not .def_474))) (let ((.def_476 (or .def_475 .def_473))) (let ((.def_477 (+ .def_169 .def_86))) (let ((.def_478 (< .def_477 1))) (let ((.def_479 (and .def_42 .def_478))) (let ((.def_480 (+ .def_141 .def_18))) (let ((.def_481 (< .def_480 (- 1)))) (let ((.def_482 (+ .def_76 .def_4))) (let ((.def_483 (< .def_482 (- 1)))) (let ((.def_484 (and .def_483 .def_481))) (let ((.def_485 (not .def_484))) (let ((.def_486 (and .def_485 .def_479))) (let ((.def_487 (not .def_486))) (let ((.def_488 (or .def_487 .def_476))) (let ((.def_489 (and .def_488 .def_467))) (let ((.def_490 (not .def_489))) (let ((.def_491 (or A5 .def_358))) (let ((.def_492 (+ .def_14 .def_169))) (let ((.def_493 (< .def_492 1))) (let ((.def_494 (not .def_493))) (let ((.def_495 (or .def_27 .def_494))) (let ((.def_496 (not .def_495))) (let ((.def_497 (= .def_496 .def_491))) (let ((.def_498 (not .def_497))) (let ((.def_499 (+ .def_53 .def_68))) (let ((.def_500 (< .def_499 1))) (let ((.def_501 (not .def_500))) (let ((.def_502 (or .def_501 .def_149))) (let ((.def_503 (= A5 .def_123))) (let ((.def_504 (or .def_503 .def_502))) (let ((.def_505 (not .def_504))) (let ((.def_506 (or .def_505 .def_498))) (let ((.def_507 (and A5 A6))) (let ((.def_508 (not .def_507))) (let ((.def_509 (or .def_7 .def_309))) (let ((.def_510 (and .def_509 .def_508))) (let ((.def_511 (not .def_510))) (let ((.def_512 (+ .def_119 .def_141))) (let ((.def_513 (< .def_512 1))) (let ((.def_514 (not .def_513))) (let ((.def_515 (= .def_514 .def_385))) (let ((.def_516 (not .def_515))) (let ((.def_517 (< .def_37 (- 1)))) (let ((.def_518 (not .def_517))) (let ((.def_519 (and .def_518 .def_55))) (let ((.def_520 (and .def_519 .def_516))) (let ((.def_521 (not .def_520))) (let ((.def_522 (or .def_521 .def_511))) (let ((.def_523 (= .def_522 .def_506))) (let ((.def_524 (not .def_523))) (let ((.def_525 (and .def_524 .def_490))) (let ((.def_526 (+ .def_169 .def_37))) (let ((.def_527 (< .def_526 (- 1)))) (let ((.def_528 (not .def_527))) (let ((.def_529 (and .def_528 .def_27))) (let ((.def_530 (+ .def_0 .def_24))) (let ((.def_531 (< .def_530 1))) (let ((.def_532 (or .def_531 .def_107))) (let ((.def_533 (not .def_532))) (let ((.def_534 (or .def_533 .def_529))) (let ((.def_535 (or A3 .def_12))) (let ((.def_536 (and .def_27 .def_309))) (let ((.def_537 (or .def_536 .def_535))) (let ((.def_538 (not .def_537))) (let ((.def_539 (and .def_538 .def_534))) (let ((.def_540 (+ .def_86 .def_53))) (let ((.def_541 (< .def_540 (- 1)))) (let ((.def_542 (not .def_541))) (let ((.def_543 (and A2 .def_542))) (let ((.def_544 (not .def_543))) (let ((.def_545 (+ .def_72 .def_36))) (let ((.def_546 (< .def_545 1))) (let ((.def_547 (or .def_546 .def_27))) (let ((.def_548 (or .def_547 .def_544))) (let ((.def_549 (not .def_548))) (let ((.def_550 (+ .def_187 .def_6))) (let ((.def_551 (< .def_550 1))) (let ((.def_552 (not .def_551))) (let ((.def_553 (and .def_149 .def_552))) (let ((.def_554 (and .def_455 A7))) (let ((.def_555 (or .def_554 .def_553))) (let ((.def_556 (not .def_555))) (let ((.def_557 (or .def_556 .def_549))) (let ((.def_558 (not .def_557))) (let ((.def_559 (and .def_558 .def_539))) (let ((.def_560 (not .def_559))) (let ((.def_561 (and .def_212 A7))) (let ((.def_562 (< .def_57 1))) (let ((.def_563 (not .def_562))) (let ((.def_564 (and .def_563 .def_142))) (let ((.def_565 (not .def_564))) (let ((.def_566 (or .def_565 .def_561))) (let ((.def_567 (or .def_265 A8))) (let ((.def_568 (or .def_149 .def_546))) (let ((.def_569 (= .def_568 .def_567))) (let ((.def_570 (not .def_569))) (let ((.def_571 (and .def_570 .def_566))) (let ((.def_572 (= .def_7 .def_2))) (let ((.def_573 (not .def_572))) (let ((.def_574 (+ .def_6 .def_68))) (let ((.def_575 (< .def_574 (- 1)))) (let ((.def_576 (< .def_77 1))) (let ((.def_577 (not .def_576))) (let ((.def_578 (and .def_577 .def_575))) (let ((.def_579 (or .def_578 .def_573))) (let ((.def_580 (not .def_579))) (let ((.def_581 (or .def_97 A9))) (let ((.def_582 (not .def_581))) (let ((.def_583 (and .def_582 .def_130))) (let ((.def_584 (not .def_583))) (let ((.def_585 (and .def_584 .def_580))) (let ((.def_586 (not .def_585))) (let ((.def_587 (and .def_586 .def_571))) (let ((.def_588 (or .def_587 .def_560))) (let ((.def_589 (= .def_588 .def_525))) (let ((.def_590 (and .def_589 .def_449))) (let ((.def_591 (not .def_590))) (let ((.def_592 (or .def_591 .def_308))) (let ((.def_593 (<= x9 1))) (let ((.def_594 (<= 0 x9))) (let ((.def_595 (<= x8 1))) (let ((.def_596 (<= 0 x8))) (let ((.def_597 (<= x7 1))) (let ((.def_598 (<= 0 x7))) (let ((.def_599 (<= x6 1))) (let ((.def_600 (<= 0 x6))) (let ((.def_601 (<= x5 1))) (let ((.def_602 (<= 0 x5))) (let ((.def_603 (<= x4 1))) (let ((.def_604 (<= 0 x4))) (let ((.def_605 (<= x3 1))) (let ((.def_606 (<= 0 x3))) (let ((.def_607 (<= x2 1))) (let ((.def_608 (<= 0 x2))) (let ((.def_609 (<= x1 1))) (let ((.def_610 (<= 0 x1))) (let ((.def_611 (<= x0 1))) (let ((.def_612 (<= 0 x0))) (let ((.def_613 (and .def_612 .def_611 .def_610 .def_609 .def_608 .def_607 .def_606 .def_605 .def_604 .def_603 .def_602 .def_601 .def_600 .def_599 .def_598 .def_597 .def_596 .def_595 .def_594 .def_593 .def_592))) .def_613)))))))))))))))))))))))))))))))))))))))))))))))))))))))))))))))))))))))))))))))))))))))))))))))))))))))))))))))))))))))))))))))))))))))))))))))))))))))))))))))))))))))))))))))))))))))))))))))))))))))))))))))))))))))))))))))))))))))))))))))))))))))))))))))))))))))))))))))))))))))))))))))))))))))))))))))))))))))))))))))))))))))))))))))))))))))))))))))))))))))))))))))))))))))))))))))))))))))))))))))))))))))))))))))))))))))))))))))))))))))))))))))))))))))))))))))))))))))))))))))))))))))))))))))))))))))))))))))))))))))))))))))))))))))))))))))))))))))))))))))))))))))))))))))))))))))))))))))))))))))))))))))))))))))
(check-sat)
